
Gurobi 9.1.1 (win64) logging started Sun Apr 17 21:50:22 2022

Changed value of parameter LogFile to ./Log/Direct_MIP_Sshape_solver_50_order_10_batch.log
   Prev:   Default: 
Gurobi Optimizer version 9.1.1 build v9.1.1rc0 (win64)
Thread count: 6 physical cores, 12 logical processors, using up to 12 threads
Optimize a model with 1540 rows, 1980 columns and 5060 nonzeros
Model fingerprint: 0xeec5e504
Variable types: 0 continuous, 1980 integer (1980 binary)
Coefficient statistics:
  Matrix range     [1e+00, 5e+00]
  Objective range  [4e-01, 2e+01]
  Bounds range     [1e+00, 1e+00]
  RHS range        [1e+00, 5e+00]
Found heuristic solution: objective 1233.2000000
Presolve removed 800 rows and 800 columns
Presolve time: 0.01s
Presolved: 740 rows, 1180 columns, 4120 nonzeros
Variable types: 0 continuous, 1180 integer (1180 binary)

Root relaxation: objective 6.204000e+02, 2861 iterations, 0.04 seconds

    Nodes    |    Current Node    |     Objective Bounds      |     Work
 Expl Unexpl |  Obj  Depth IntInf | Incumbent    BestBd   Gap | It/Node Time

     0     0  620.40000    0  192 1233.20000  620.40000  49.7%     -    0s
H    0     0                    1144.8000000  620.40000  45.8%     -    0s
H    0     0                    1045.0000000  620.40000  40.6%     -    0s
H    0     0                    1043.4000000  620.40000  40.5%     -    0s
H    0     0                    1040.8000000  620.40000  40.4%     -    0s
     0     0  620.40000    0  295 1040.80000  620.40000  40.4%     -    0s
H    0     0                    1027.0000000  620.40000  39.6%     -    0s
     0     0  630.30000    0  258 1027.00000  630.30000  38.6%     -    0s
H    0     0                    1022.2000000  630.30000  38.3%     -    0s
H    0     0                    1017.6000000  630.30000  38.1%     -    0s
H    0     0                    1014.2000000  630.30000  37.9%     -    0s
H    0     0                    1006.0000000  630.30000  37.3%     -    0s
H    0     0                    1002.0000000  630.30000  37.1%     -    0s
H    0     0                    1001.0000000  630.30000  37.0%     -    0s
H    0     0                     957.4000000  630.30000  34.2%     -    0s
H    0     0                     956.2000000  630.30000  34.1%     -    0s
     0     0  635.68970    0  221  956.20000  635.68970  33.5%     -    0s
H    0     0                     952.8000000  635.68970  33.3%     -    0s
H    0     0                     942.8000000  635.68970  32.6%     -    0s
     0     0  635.72303    0  202  942.80000  635.72303  32.6%     -    0s
     0     0  635.72303    0  201  942.80000  635.72303  32.6%     -    0s
     0     0  639.60923    0  314  942.80000  639.60923  32.2%     -    0s
     0     0  640.28887    0  338  942.80000  640.28887  32.1%     -    0s
     0     0  640.53798    0  335  942.80000  640.53798  32.1%     -    0s
     0     0  640.55098    0  324  942.80000  640.55098  32.1%     -    0s
     0     0  641.27399    0  385  942.80000  641.27399  32.0%     -    0s
     0     0  641.80548    0  373  942.80000  641.80548  31.9%     -    0s
     0     0  641.93262    0  347  942.80000  641.93262  31.9%     -    0s
     0     0  642.00667    0  268  942.80000  642.00667  31.9%     -    0s
     0     0  642.05111    0  286  942.80000  642.05111  31.9%     -    0s
     0     0  642.14126    0  356  942.80000  642.14126  31.9%     -    0s
     0     0  642.15865    0  337  942.80000  642.15865  31.9%     -    0s
     0     0  642.15873    0  323  942.80000  642.15873  31.9%     -    0s
     0     0  642.67182    0  366  942.80000  642.67182  31.8%     -    0s
     0     0  642.78356    0  428  942.80000  642.78356  31.8%     -    0s
     0     0  642.80885    0  411  942.80000  642.80885  31.8%     -    0s
     0     0  642.80971    0  389  942.80000  642.80971  31.8%     -    0s
     0     0  642.86840    0  419  942.80000  642.86840  31.8%     -    0s
     0     0  642.86891    0  490  942.80000  642.86891  31.8%     -    0s
H    0     0                     933.8000000  642.86891  31.2%     -    0s
     0     0  643.02535    0  600  933.80000  643.02535  31.1%     -    0s
     0     0  643.02535    0  336  933.80000  643.02535  31.1%     -    0s
     0     2  643.02535    0  332  933.80000  643.02535  31.1%     -    0s
H  116   112                     907.8000000  693.84922  23.6%   374    1s
H  199   202                     906.8000000  693.84922  23.5%   238    1s
H  253   246                     902.6000000  693.84922  23.1%   195    1s
H  293   271                     902.2000000  693.84922  23.1%   229    2s

Cutting planes:
  Gomory: 39
  Cover: 1394
  Clique: 142
  MIR: 91
  StrongCG: 3
  Zero half: 71

Explored 357 nodes (85851 simplex iterations) in 3.01 seconds
Thread count was 12 (of 12 available processors)

Solution count 10: 902.2 902.6 906.8 ... 1001

Time limit reached
Best objective 9.022000000000e+02, best bound 6.940000000000e+02, gap 23.0769%
